p edge 104 525
e 1 48
e 1 52
e 1 56
e 1 59
e 1 87
e 1 88
e 1 93
e 1 99
e 1 100
e 1 102
e 2 10
e 2 16
e 2 25
e 2 29
e 2 34
e 2 36
e 2 48
e 2 56
e 2 58
e 2 62
e 2 67
e 2 75
e 2 80
e 2 81
e 2 87
e 2 98
e 3 14
e 3 32
e 3 39
e 3 51
e 3 55
e 3 58
e 3 71
e 3 74
e 3 96
e 4 10
e 4 14
e 4 20
e 4 22
e 4 37
e 4 46
e 4 48
e 4 55
e 4 62
e 4 68
e 4 75
e 4 77
e 4 79
e 4 81
e 4 82
e 4 100
e 5 7
e 5 19
e 5 35
e 5 37
e 5 50
e 5 60
e 5 64
e 5 69
e 5 81
e 5 82
e 5 91
e 5 93
e 5 97
e 6 25
e 6 36
e 6 44
e 6 78
e 6 100
e 6 104
e 7 11
e 7 13
e 7 15
e 7 18
e 7 29
e 7 46
e 7 54
e 7 59
e 7 78
e 7 90
e 8 17
e 8 28
e 8 36
e 8 44
e 8 45
e 8 47
e 8 55
e 8 84
e 8 88
e 8 90
e 8 91
e 8 97
e 9 17
e 9 40
e 9 51
e 9 57
e 9 87
e 9 88
e 9 102
e 10 16
e 10 19
e 10 30
e 10 34
e 10 36
e 10 39
e 10 55
e 10 57
e 10 70
e 11 21
e 11 32
e 11 62
e 11 67
e 11 70
e 11 73
e 11 91
e 12 13
e 12 31
e 12 32
e 12 43
e 12 48
e 12 64
e 12 79
e 12 82
e 12 91
e 12 96
e 13 42
e 13 45
e 13 46
e 13 49
e 13 74
e 13 79
e 13 90
e 13 97
e 13 98
e 13 100
e 13 102
e 13 103
e 14 16
e 14 19
e 14 46
e 14 57
e 14 73
e 14 85
e 14 86
e 14 90
e 14 95
e 14 98
e 14 103
e 15 25
e 15 35
e 15 45
e 15 63
e 15 68
e 15 84
e 15 101
e 15 102
e 16 20
e 16 22
e 16 31
e 16 53
e 16 55
e 16 58
e 16 69
e 16 70
e 16 71
e 16 73
e 16 84
e 16 96
e 16 99
e 17 21
e 17 29
e 17 63
e 17 92
e 17 97
e 18 21
e 18 23
e 18 49
e 18 71
e 18 82
e 18 93
e 19 21
e 19 34
e 19 47
e 19 65
e 19 68
e 19 81
e 19 92
e 20 23
e 20 59
e 20 87
e 20 95
e 21 23
e 21 29
e 21 39
e 21 42
e 21 46
e 21 47
e 21 66
e 21 79
e 21 83
e 21 89
e 21 104
e 22 24
e 22 27
e 22 38
e 22 55
e 22 73
e 22 98
e 22 102
e 23 36
e 23 67
e 23 84
e 23 95
e 24 43
e 24 44
e 24 60
e 24 67
e 24 79
e 24 86
e 24 88
e 24 95
e 25 46
e 25 48
e 25 59
e 25 63
e 25 69
e 25 77
e 25 89
e 25 100
e 25 103
e 26 28
e 26 34
e 26 43
e 26 48
e 26 52
e 26 56
e 26 58
e 26 60
e 26 71
e 26 72
e 26 73
e 26 78
e 26 84
e 26 91
e 26 95
e 26 104
e 27 29
e 27 32
e 27 33
e 27 53
e 27 63
e 27 76
e 27 85
e 28 52
e 28 78
e 28 83
e 28 93
e 28 100
e 29 46
e 29 60
e 29 83
e 29 85
e 29 88
e 29 94
e 29 97
e 29 101
e 30 39
e 30 82
e 30 99
e 30 102
e 31 33
e 31 44
e 31 59
e 31 77
e 31 98
e 32 47
e 32 50
e 32 58
e 32 71
e 32 78
e 32 80
e 32 86
e 33 46
e 33 47
e 33 51
e 33 53
e 33 59
e 33 71
e 33 73
e 33 90
e 33 101
e 34 51
e 34 64
e 34 67
e 34 79
e 34 83
e 34 101
e 34 103
e 35 36
e 35 56
e 35 69
e 35 74
e 35 102
e 36 39
e 36 58
e 36 68
e 36 74
e 36 76
e 36 87
e 36 90
e 37 42
e 37 61
e 37 73
e 37 81
e 37 84
e 37 88
e 38 45
e 38 49
e 38 50
e 38 59
e 38 62
e 38 68
e 38 71
e 38 84
e 38 87
e 38 98
e 38 102
e 39 41
e 39 49
e 39 50
e 39 53
e 39 64
e 39 65
e 39 93
e 39 101
e 40 57
e 40 65
e 40 101
e 41 42
e 41 49
e 41 52
e 41 62
e 41 69
e 41 90
e 42 59
e 42 62
e 42 68
e 42 70
e 42 73
e 42 74
e 42 86
e 42 95
e 42 99
e 43 60
e 43 69
e 43 74
e 43 81
e 43 88
e 43 100
e 44 49
e 44 54
e 44 59
e 44 76
e 44 94
e 44 100
e 45 56
e 45 60
e 45 71
e 45 83
e 46 66
e 46 68
e 46 74
e 46 85
e 46 102
e 46 104
e 47 59
e 47 65
e 47 80
e 48 82
e 48 97
e 49 76
e 49 90
e 49 95
e 50 55
e 50 58
e 50 73
e 50 81
e 50 82
e 50 85
e 50 104
e 51 56
e 51 62
e 51 91
e 51 101
e 51 102
e 51 104
e 52 54
e 52 66
e 52 78
e 52 81
e 52 84
e 52 104
e 53 58
e 53 67
e 53 69
e 53 86
e 53 90
e 54 67
e 54 68
e 54 69
e 54 75
e 54 83
e 54 96
e 54 103
e 55 83
e 55 93
e 55 95
e 56 59
e 56 64
e 56 73
e 56 83
e 56 84
e 56 91
e 56 97
e 56 98
e 57 72
e 57 77
e 57 87
e 57 92
e 58 75
e 58 78
e 58 83
e 58 90
e 58 95
e 59 91
e 59 93
e 59 95
e 60 62
e 60 83
e 60 92
e 61 63
e 61 65
e 61 71
e 61 78
e 61 89
e 61 91
e 61 96
e 61 103
e 62 80
e 62 94
e 62 102
e 63 64
e 63 86
e 63 96
e 64 67
e 64 94
e 65 81
e 65 84
e 65 91
e 65 95
e 65 96
e 66 78
e 66 83
e 67 72
e 67 75
e 67 78
e 67 96
e 67 104
e 68 80
e 68 93
e 69 88
e 69 93
e 70 73
e 70 94
e 71 74
e 71 76
e 71 84
e 71 92
e 71 95
e 71 101
e 72 101
e 72 102
e 72 104
e 73 86
e 74 85
e 74 87
e 74 89
e 74 96
e 75 81
e 75 83
e 75 86
e 76 100
e 77 89
e 78 80
e 78 87
e 78 89
e 78 95
e 78 99
e 78 102
e 79 82
e 79 84
e 79 99
e 80 92
e 81 102
e 82 93
e 82 102
e 83 94
e 84 86
e 84 89
e 84 92
e 85 90
e 86 92
e 86 103
e 87 100
e 89 104
e 90 91
e 90 95
e 90 98
e 91 103
e 94 99
e 95 101
e 96 101
e 96 104
e 99 102
e 102 104
